nproducts = 8;      
nsites = 4;
ncustomers = 4;

eb = [|1200, 1000, 1400, 2000, 1300, 900, 600, 1900,
      |1100, 1000, 1200, 1500, 1100, 600, 500, 1800,
      |1300, 1000, 1100, 1500, 1200, 1000, 300, 1700,
      |1200, 1100, 1000, 1400, 1400, 1000, 700, 2000|]; 
              
pname = ["Golf", "E-Golf", "Passat", "T-Roc", "Sharan", "Up", "E-Up", "Touareq"];
weight = [1380, 1615, 1465, 1245, 1695 ,980, 1235, 1905];

emissionWLTP = [108, 0, 139, 131, 170, 123, 0, 233];
supercredit = [100, 166, 100, 100, 100, 100, 166 , 100];

sname = ["Wolfsburg", "Emden", "Palmela", "Bratislava"];

cname = ["Frankreich", "Schweden", "Belgien", "Italien"];

productionPlan = [|1, 1, 0, 0, 0, 0, 0, 0,
                  |0, 0, 1, 0, 0, 0, 0, 0,
                  |0, 0, 0, 1, 1, 0, 0, 0,
                  |0, 0, 0, 0, 0, 1, 1, 1|];

demand = [|200,170,300,100,100,130,40,100,
          |150,70,150,110,40,90,70,150,
          |180,90,180,180,20,30,30,20,
          |110,60,220,120,120,40,40,120|];
          
%excessdemand = [1.5, 1.5, 1.5, 1.5, 1.5, 1.5, 1.5, 1.5];
excessdemand = [1.2, 1.2, 1.2, 1.2, 1.2, 1.2, 1.2, 1.2];

%maxProduction= [1037, 850, 800, 768];
maxProduction= [1100, 1000 , 1000, 1000];

emissiongoal = 1.0;
payperfine = 95;